100
128
1
2
31
41
7
3
5
9
18
3
16
22
10
16
19
2
32
19
11
1
10
9
6
1
8
6
3
13
9
7
7
4
16
21
4
19
9
7
4
16
6
16
3
12
6
12
2
11
5
2
20
5
4
5
11
4
35
20
7
2
6
24
10
8
21
8
2
4
2
2
10
13
23
12
3
1
7
4
44
1
16
3
36
51
45
1
45
59
19
43
53
55
53
2
1
20
25
64
32
64